Problem:    min_weighted_vertex_cover
Rows:       48
Columns:    13 (13 integer, 13 binary)
Non-zeros:  118
Status:     INTEGER OPTIMAL
Objective:  indegree = 109 (MINimum)

   No.   Row name        Activity     Lower bound   Upper bound
------ ------------    ------------- ------------- -------------
     1 indegree                  109                             
     2 nodes                       8             1               
     3 idk[1,2]                    1             1               
     4 idk[1,3]                    1             1               
     5 idk[2,4]                    1             1               
     6 idk[2,5]                    2             1               
     7 idk[2,8]                    1             1               
     8 idk[3,4]                    1             1               
     9 idk[3,6]                    2             1               
    10 idk[3,9]                    1             1               
    11 idk[4,5]                    1             1               
    12 idk[4,7]                    1             1               
    13 idk[5,8]                    1             1               
    14 idk[5,7]                    2             1               
    15 idk[6,7]                    2             1               
    16 idk[6,9]                    1             1               
    17 idk[7,9]                    1             1               
    18 idk[8,10]                   1             1               
    19 idk[8,11]                   1             1               
    20 idk[9,10]                   1             1               
    21 idk[9,12]                   1             1               
    22 idk[10,11]                  2             1               
    23 idk[10,12]                  2             1               
    24 idk[11,13]                  1             1               
    25 idk[12,13]                  1             1               
    26 idk[2,1]                    1             1               
    27 idk[3,1]                    1             1               
    28 idk[4,2]                    1             1               
    29 idk[5,2]                    2             1               
    30 idk[8,2]                    1             1               
    31 idk[4,3]                    1             1               
    32 idk[6,3]                    2             1               
    33 idk[9,3]                    1             1               
    34 idk[5,4]                    1             1               
    35 idk[7,4]                    1             1               
    36 idk[8,5]                    1             1               
    37 idk[7,5]                    2             1               
    38 idk[7,6]                    2             1               
    39 idk[9,6]                    1             1               
    40 idk[9,7]                    1             1               
    41 idk[10,8]                   1             1               
    42 idk[11,8]                   1             1               
    43 idk[10,9]                   1             1               
    44 idk[12,9]                   1             1               
    45 idk[11,10]                  2             1               
    46 idk[12,10]                  2             1               
    47 idk[13,11]                  1             1               
    48 idk[13,12]                  1             1               

   No. Column name       Activity     Lower bound   Upper bound
------ ------------    ------------- ------------- -------------
     1 x[1]         *              0             0             1 
     2 x[2]         *              1             0             1 
     3 x[3]         *              1             0             1 
     4 x[4]         *              0             0             1 
     5 x[5]         *              1             0             1 
     6 x[6]         *              1             0             1 
     7 x[7]         *              1             0             1 
     8 x[8]         *              0             0             1 
     9 x[9]         *              0             0             1 
    10 x[10]        *              1             0             1 
    11 x[11]        *              1             0             1 
    12 x[12]        *              1             0             1 
    13 x[13]        *              0             0             1 

Integer feasibility conditions:

KKT.PE: max.abs.err = 0.00e+00 on row 0
        max.rel.err = 0.00e+00 on row 0
        High quality

KKT.PB: max.abs.err = 0.00e+00 on row 0
        max.rel.err = 0.00e+00 on row 0
        High quality

End of output
